\ Model portfolio
\ LP format - for model browsing. Use MPS format to capture full model detail.
Maximize
  0 expected_returns + [ - 0.1905760503648428 weights[0] * inverse_variance
   + 0.3350584670598399 weights[1] * inverse_variance
   - 0.0767446431660636 weights[2] * inverse_variance
   + 0.2726943810100567 weights[3] * inverse_variance
   + 0.0967643845581425 weights[4] * inverse_variance
   + 0.4045815045290707 weights[5] * inverse_variance
   + 0.0964551185735027 weights[6] * inverse_variance
   + 0.0648240883302678 weights[7] * inverse_variance
   - 0.033725152416865 weights[8] * inverse_variance
   - 0.3905188592329616 weights[9] * inverse_variance
   - 0.2138794708550456 weights[10] * inverse_variance
   - 0.0378015750891941 weights[11] * inverse_variance
   - 0.4722127389023312 weights[12] * inverse_variance
   + 0.2147860788973104 weights[13] * inverse_variance
   + 0.0888502410292428 weights[14] * inverse_variance
   + 0.0388645098883568 weights[15] * inverse_variance
   + 0.0347513440371635 weights[16] * inverse_variance
   - 0.6295491465802073 weights[17] * inverse_variance
   + 0.1512240484565697 weights[18] * inverse_variance
   - 0.501587729247213 weights[19] * inverse_variance
   + 0.000941854 weights[20] * inverse_variance
   - 0.1360001979703964 weights[21] * inverse_variance
   - 0.1086782242998893 weights[22] * inverse_variance
   - 0.00111296179988907 weights[23] * inverse_variance
   - 0.4434169963540289 weights[24] * inverse_variance
   - 0.1923906619943136 weights[25] * inverse_variance
   - 0.4960330988677162 weights[26] * inverse_variance
   - 0.2280678740999368 weights[27] * inverse_variance
   - 0.3285958774494483 weights[28] * inverse_variance
   + 0.1239452947606489 weights[29] * inverse_variance
   + 0.059548140455711 weights[30] * inverse_variance
   - 0.1333381678293864 weights[31] * inverse_variance
   - 0.1380764092162756 weights[32] * inverse_variance
   + 0.0771637834803939 weights[33] * inverse_variance
   - 0.1202641375021475 weights[34] * inverse_variance
   - 0.9026863310730588 weights[35] * inverse_variance
   + 0.0712079490629281 weights[36] * inverse_variance
   + 0.0412446860085892 weights[37] * inverse_variance
   - 0.136239070135429 weights[38] * inverse_variance
   - 0.3448693383632062 weights[39] * inverse_variance
   - 0.1526940183619758 weights[40] * inverse_variance
   + 0.1672715392568039 weights[41] * inverse_variance
   - 0.4350977072191808 weights[42] * inverse_variance
   - 0.2718587330331297 weights[43] * inverse_variance
   + 0.2401404024054534 weights[44] * inverse_variance
   - 0.321467455539886 weights[45] * inverse_variance
   + 0.00122908878853787 weights[46] * inverse_variance
   - 0.5165696972102429 weights[47] * inverse_variance
   - 0.3725291935818147 weights[48] * inverse_variance
   - 0.6231872950506314 weights[49] * inverse_variance
   - 0.2886197576802133 weights[50] * inverse_variance
   + 0.00541801624922127 weights[51] * inverse_variance
   - 0.1915104791184453 weights[52] * inverse_variance
   - 0.3859136795438443 weights[53] * inverse_variance
   + 0.0592945347410586 weights[54] * inverse_variance
   + 0.23916533725598 weights[55] * inverse_variance
   - 0.2078247895902887 weights[56] * inverse_variance
   - 0.0685755405961115 weights[57] * inverse_variance
   - 0.0699929048964546 weights[58] * inverse_variance
   - 0.017584133278877 weights[59] * inverse_variance
   - 0.0989146143430656 weights[60] * inverse_variance
   + 0.1688388167453286 weights[61] * inverse_variance
   - 0.320308152685069 weights[62] * inverse_variance
   + 0.1702408460646607 weights[63] * inverse_variance
   + 0.4144517748094744 weights[64] * inverse_variance
   - 0.0371476368880538 weights[65] * inverse_variance
   + 0.1171251544586192 weights[66] * inverse_variance
   - 0.2374802399184973 weights[67] * inverse_variance
   - 0.2862276520261754 weights[68] * inverse_variance
   - 0.2747301186303055 weights[69] * inverse_variance
   - 0.2316686749383916 weights[70] * inverse_variance
   - 0.695327599699346 weights[71] * inverse_variance
   + 0.1581074890383691 weights[72] * inverse_variance
   - 0.0871588167572948 weights[73] * inverse_variance
   - 0.5797334829430059 weights[74] * inverse_variance
   + 0.0974309414701779 weights[75] * inverse_variance
   + 0.0338506615120651 weights[76] * inverse_variance
   - 0.224297909142215 weights[77] * inverse_variance
   + 0.2041343434396676 weights[78] * inverse_variance
   - 0.3212847906623404 weights[79] * inverse_variance
   - 0.2877684080982922 weights[80] * inverse_variance
   - 0.315265716411439 weights[81] * inverse_variance
   + 0.0404638943165006 weights[82] * inverse_variance
   + 0.1137385177342971 weights[83] * inverse_variance
   - 0.4666620183643611 weights[84] * inverse_variance
   + 0.114391785605613 weights[85] * inverse_variance
   - 0.5348885504115926 weights[86] * inverse_variance
   - 0.3817286045207074 weights[87] * inverse_variance
   - 0.4028659257204159 weights[88] * inverse_variance
   - 0.1695882668384509 weights[89] * inverse_variance
   - 0.1215790657565868 weights[90] * inverse_variance
   - 0.0396444736634589 weights[91] * inverse_variance
   + 0.0569716733551779 weights[92] * inverse_variance
   - 0.410395580895042 weights[93] * inverse_variance
   - 0.2305677538021371 weights[94] * inverse_variance
   - 0.500064160917578 weights[95] * inverse_variance
   - 0.0321835230962736 weights[96] * inverse_variance
   - 0.3388038795023721 weights[97] * inverse_variance
   - 0.7509844969868279 weights[98] * inverse_variance
   + 0.181114896910747 weights[99] * inverse_variance
   + 0.3178935340196163 weights[100] * inverse_variance
   - 0.1156259355480806 weights[101] * inverse_variance
   + 0.1216119675814483 weights[102] * inverse_variance
   - 0.3578872081144401 weights[103] * inverse_variance
   - 0.5466695706287211 weights[104] * inverse_variance
   - 0.0816231704864948 weights[105] * inverse_variance
   - 0.0335784049639512 weights[106] * inverse_variance
   + 0.265137101550446 weights[107] * inverse_variance
   - 0.2864918888919379 weights[108] * inverse_variance
   + 0.0730947393638614 weights[109] * inverse_variance
   - 0.1870378765803206 weights[110] * inverse_variance
   - 0.0311255933748884 weights[111] * inverse_variance
   - 0.5227731051647652 weights[112] * inverse_variance
   - 0.3503712279812967 weights[113] * inverse_variance
   + 0.2495513059341973 weights[114] * inverse_variance
   - 0.0162396690557092 weights[115] * inverse_variance
   - 0.0428384726429203 weights[116] * inverse_variance
   - 0.0908409921654312 weights[117] * inverse_variance
   - 0.5703091391640508 weights[118] * inverse_variance
   - 0.2223538367432122 weights[119] * inverse_variance
   - 0.466474356693221 weights[120] * inverse_variance
   - 0.4323348980854268 weights[121] * inverse_variance
   - 1.218420040636052 weights[122] * inverse_variance
   - 0.4083177184201277 weights[123] * inverse_variance
   - 0.101933222681537 weights[124] * inverse_variance
   - 0.4790408233358248 weights[125] * inverse_variance
   - 0.3136675377320072 weights[126] * inverse_variance
   - 0.4140350964834092 weights[127] * inverse_variance
   - 0.7641043547559426 weights[128] * inverse_variance
   - 0.2600609074252465 weights[129] * inverse_variance
   - 0.2187139698679019 weights[130] * inverse_variance
   + 0.0831712478616675 weights[131] * inverse_variance
   - 0.0614422585997076 weights[132] * inverse_variance
   - 0.023057660511117 weights[133] * inverse_variance
   - 0.1891293349893685 weights[134] * inverse_variance
   - 0.1612305858925601 weights[135] * inverse_variance
   + 0.1180154067584741 weights[136] * inverse_variance
   - 0.1681107664589792 weights[137] * inverse_variance
   + 0.1648644590154091 weights[138] * inverse_variance
   - 0.3575271861992932 weights[139] * inverse_variance
   - 0.3259509191348415 weights[140] * inverse_variance
   - 0.2773426820440769 weights[141] * inverse_variance
   - 0.00513842247847329 weights[142] * inverse_variance
   + 0.0716883410755842 weights[143] * inverse_variance
   - 0.1875202643928449 weights[144] * inverse_variance
   - 0.4267088352897325 weights[145] * inverse_variance
   - 0.3217644129294964 weights[146] * inverse_variance
   + 0.2015511404086359 weights[147] * inverse_variance
   + 0.3172740196095825 weights[148] * inverse_variance
   - 0.8277138904835259 weights[149] * inverse_variance
   - 0.1417554242419682 weights[150] * inverse_variance
   - 0.0170003879618811 weights[151] * inverse_variance
   - 0.0487364036145098 weights[152] * inverse_variance
   - 0.0857526020889656 weights[153] * inverse_variance
   - 0.0477915174846864 weights[154] * inverse_variance
   - 0.2517707835725167 weights[155] * inverse_variance
   - 0.4495093877066025 weights[156] * inverse_variance
   - 0.0897027341350656 weights[157] * inverse_variance
   - 0.2848110466825037 weights[158] * inverse_variance
   - 0.3000055481202346 weights[159] * inverse_variance
   - 0.1901475950361743 weights[160] * inverse_variance
   - 0.0603309775346581 weights[161] * inverse_variance
   - 0.3371797930124157 weights[162] * inverse_variance
   - 0.6540364812902364 weights[163] * inverse_variance
   + 0.1001485001540076 weights[164] * inverse_variance
   - 0.3624791504213394 weights[165] * inverse_variance
   - 0.056430675459367 weights[166] * inverse_variance
   - 0.0713473919458524 weights[167] * inverse_variance
   - 0.2778711047448998 weights[168] * inverse_variance
   - 0.0456573392618108 weights[169] * inverse_variance
   - 0.1824967673112696 weights[170] * inverse_variance
   - 0.147210990704342 weights[171] * inverse_variance
   - 0.5164533921371915 weights[172] * inverse_variance
   + 0.1510934870460499 weights[173] * inverse_variance
   + 0.322275033088584 weights[174] * inverse_variance
   + 0.1494930220458639 weights[175] * inverse_variance
   - 0.614033421853923 weights[176] * inverse_variance
   + 0.0475150670508059 weights[177] * inverse_variance
   + 0.2975735304802508 weights[178] * inverse_variance
   - 0.2037260050560647 weights[179] * inverse_variance
   - 0.2987262312441326 weights[180] * inverse_variance
   - 0.4629307177038642 weights[181] * inverse_variance
   + 0.2411972026363278 weights[182] * inverse_variance
   - 0.6018962130150611 weights[183] * inverse_variance
   - 0.2281727288188207 weights[184] * inverse_variance
   - 0.2529708979757562 weights[185] * inverse_variance
   + 0.1829739669162642 weights[186] * inverse_variance
   - 0.0226836037144267 weights[187] * inverse_variance
   + 0.3417691803221847 weights[188] * inverse_variance
   + 0.0671026608870148 weights[189] * inverse_variance
   + 0.093624136202535 weights[190] * inverse_variance
   + 0.0349579368496989 weights[191] * inverse_variance
   - 0.1748521452122088 weights[192] * inverse_variance
   + 0.131501568586488 weights[193] * inverse_variance
   - 0.2081871567576824 weights[194] * inverse_variance
   - 0.4305943563712256 weights[195] * inverse_variance
   - 0.2173000701497199 weights[196] * inverse_variance
   - 0.1991637829368651 weights[197] * inverse_variance
   + 0.0617919988797068 weights[198] * inverse_variance
   - 0.0441685315895831 weights[199] * inverse_variance
   - 0.1085985769916738 weights[200] * inverse_variance
   - 0.0293415763932484 weights[201] * inverse_variance
   - 0.228608047127834 weights[202] * inverse_variance
   - 0.6004658420948911 weights[203] * inverse_variance
   - 0.2089758930921564 weights[204] * inverse_variance
   + 0.0174968431371599 weights[205] * inverse_variance
   - 0.0494150827771948 weights[206] * inverse_variance
   + 0.2029601128464393 weights[207] * inverse_variance
   - 0.5419076765839553 weights[208] * inverse_variance
   - 0.0319234640642508 weights[209] * inverse_variance
   - 0.5730793878704448 weights[210] * inverse_variance
   - 0.25966605544884 weights[211] * inverse_variance
   - 0.2986772833240043 weights[212] * inverse_variance
   - 0.1561728661840107 weights[213] * inverse_variance
   - 0.4803723176471112 weights[214] * inverse_variance
   + 0.1379098360797945 weights[215] * inverse_variance
   + 0.1705085756019194 weights[216] * inverse_variance
   - 0.0918949287360515 weights[217] * inverse_variance
   - 0.3800137443201484 weights[218] * inverse_variance
   + 0.0610558590840963 weights[219] * inverse_variance
   - 0.2305167014211584 weights[220] * inverse_variance
   - 0.1519721036370294 weights[221] * inverse_variance
   - 0.2377264770088388 weights[222] * inverse_variance
   + 0.0192422973040568 weights[223] * inverse_variance
   - 0.2628591057510781 weights[224] * inverse_variance
   + 0.0870123244807326 weights[225] * inverse_variance
   - 0.191450336720367 weights[226] * inverse_variance
   - 0.3840983963168482 weights[227] * inverse_variance
   + 0.0611624441168743 weights[228] * inverse_variance
   + 0.0634280210166645 weights[229] * inverse_variance
   - 0.0749466461824732 weights[230] * inverse_variance
   - 0.0889087743894409 weights[231] * inverse_variance
   - 0.0771367551910979 weights[232] * inverse_variance
   - 0.1275803649186686 weights[233] * inverse_variance
   + 0.1764660866352747 weights[234] * inverse_variance
   - 0.7685554093720991 weights[235] * inverse_variance
   - 0.4402686504789857 weights[236] * inverse_variance
   - 0.1310318536864329 weights[237] * inverse_variance
   - 0.1239646578325255 weights[238] * inverse_variance
   - 0.3791593603647853 weights[239] * inverse_variance
   - 0.3176363209824385 weights[240] * inverse_variance
   - 0.1211733057128642 weights[241] * inverse_variance
   - 0.4546898635382105 weights[242] * inverse_variance
   - 0.3913146614616518 weights[243] * inverse_variance
   - 0.0412245867183741 weights[244] * inverse_variance
   - 0.5027599113359885 weights[245] * inverse_variance
   - 0.0401510718369888 weights[246] * inverse_variance
   + 0.0890257522524456 weights[247] * inverse_variance
   - 0.2312087261970863 weights[248] * inverse_variance
   + 0.00492784711208943 weights[249] * inverse_variance
   - 0.2920753339025269 weights[250] * inverse_variance
   + 0.1154556931153461 weights[251] * inverse_variance
   - 0.0601219186706134 weights[252] * inverse_variance
   - 0.1856831479799561 weights[253] * inverse_variance
   - 0.2296295474304265 weights[254] * inverse_variance
   - 0.5866955079795123 weights[255] * inverse_variance
   - 0.0277705647789823 weights[256] * inverse_variance
   - 0.2624835198200944 weights[257] * inverse_variance
   + 0.00871999791696093 weights[258] * inverse_variance
   - 0.2009780389981512 weights[259] * inverse_variance
   + 0.0264849426413629 weights[260] * inverse_variance
   + 0.2935542703479133 weights[261] * inverse_variance
   + 0.1454807040255837 weights[262] * inverse_variance
   - 0.0698245019030078 weights[263] * inverse_variance
   - 0.702159336289473 weights[264] * inverse_variance
   + 0.0795228941790827 weights[265] * inverse_variance
   - 0.3982907041212593 weights[266] * inverse_variance
   - 0.2532107557801819 weights[267] * inverse_variance
   + 0.1976455232362497 weights[268] * inverse_variance
   - 0.088421119439735 weights[269] * inverse_variance
   + 0.0124991006910389 weights[270] * inverse_variance
   - 0.3570801519727359 weights[271] * inverse_variance
   + 0.0695029936659741 weights[272] * inverse_variance
   - 0.9368999647880047 weights[273] * inverse_variance
   - 0.5126317092032795 weights[274] * inverse_variance
   + 0.134486509944428 weights[275] * inverse_variance
   - 0.3323462156775346 weights[276] * inverse_variance
   + 0.0148476274264674 weights[277] * inverse_variance
   + 0.1460483177828003 weights[278] * inverse_variance
   - 0.2266700282059119 weights[279] * inverse_variance
   - 0.3365896534158642 weights[280] * inverse_variance ] / 2 
Subject To
 integrity: weights[0] + weights[1] + weights[2] + weights[3] + weights[4]
   + weights[5] + weights[6] + weights[7] + weights[8] + weights[9]
   + weights[10] + weights[11] + weights[12] + weights[13] + weights[14]
   + weights[15] + weights[16] + weights[17] + weights[18] + weights[19]
   + weights[20] + weights[21] + weights[22] + weights[23] + weights[24]
   + weights[25] + weights[26] + weights[27] + weights[28] + weights[29]
   + weights[30] + weights[31] + weights[32] + weights[33] + weights[34]
   + weights[35] + weights[36] + weights[37] + weights[38] + weights[39]
   + weights[40] + weights[41] + weights[42] + weights[43] + weights[44]
   + weights[45] + weights[46] + weights[47] + weights[48] + weights[49]
   + weights[50] + weights[51] + weights[52] + weights[53] + weights[54]
   + weights[55] + weights[56] + weights[57] + weights[58] + weights[59]
   + weights[60] + weights[61] + weights[62] + weights[63] + weights[64]
   + weights[65] + weights[66] + weights[67] + weights[68] + weights[69]
   + weights[70] + weights[71] + weights[72] + weights[73] + weights[74]
   + weights[75] + weights[76] + weights[77] + weights[78] + weights[79]
   + weights[80] + weights[81] + weights[82] + weights[83] + weights[84]
   + weights[85] + weights[86] + weights[87] + weights[88] + weights[89]
   + weights[90] + weights[91] + weights[92] + weights[93] + weights[94]
   + weights[95] + weights[96] + weights[97] + weights[98] + weights[99]
   + weights[100] + weights[101] + weights[102] + weights[103]
   + weights[104] + weights[105] + weights[106] + weights[107]
   + weights[108] + weights[109] + weights[110] + weights[111]
   + weights[112] + weights[113] + weights[114] + weights[115]
   + weights[116] + weights[117] + weights[118] + weights[119]
   + weights[120] + weights[121] + weights[122] + weights[123]
   + weights[124] + weights[125] + weights[126] + weights[127]
   + weights[128] + weights[129] + weights[130] + weights[131]
   + weights[132] + weights[133] + weights[134] + weights[135]
   + weights[136] + weights[137] + weights[138] + weights[139]
   + weights[140] + weights[141] + weights[142] + weights[143]
   + weights[144] + weights[145] + weights[146] + weights[147]
   + weights[148] + weights[149] + weights[150] + weights[151]
   + weights[152] + weights[153] + weights[154] + weights[155]
   + weights[156] + weights[157] + weights[158] + weights[159]
   + weights[160] + weights[161] + weights[162] + weights[163]
   + weights[164] + weights[165] + weights[166] + weights[167]
   + weights[168] + weights[169] + weights[170] + weights[171]
   + weights[172] + weights[173] + weights[174] + weights[175]
   + weights[176] + weights[177] + weights[178] + weights[179]
   + weights[180] + weights[181] + weights[182] + weights[183]
   + weights[184] + weights[185] + weights[186] + weights[187]
   + weights[188] + weights[189] + weights[190] + weights[191]
   + weights[192] + weights[193] + weights[194] + weights[195]
   + weights[196] + weights[197] + weights[198] + weights[199]
   + weights[200] + weights[201] + weights[202] + weights[203]
   + weights[204] + weights[205] + weights[206] + weights[207]
   + weights[208] + weights[209] + weights[210] + weights[211]
   + weights[212] + weights[213] + weights[214] + weights[215]
   + weights[216] + weights[217] + weights[218] + weights[219]
   + weights[220] + weights[221] + weights[222] + weights[223]
   + weights[224] + weights[225] + weights[226] + weights[227]
   + weights[228] + weights[229] + weights[230] + weights[231]
   + weights[232] + weights[233] + weights[234] + weights[235]
   + weights[236] + weights[237] + weights[238] + weights[239]
   + weights[240] + weights[241] + weights[242] + weights[243]
   + weights[244] + weights[245] + weights[246] + weights[247]
   + weights[248] + weights[249] + weights[250] + weights[251]
   + weights[252] + weights[253] + weights[254] + weights[255]
   + weights[256] + weights[257] + weights[258] + weights[259]
   + weights[260] + weights[261] + weights[262] + weights[263]
   + weights[264] + weights[265] + weights[266] + weights[267]
   + weights[268] + weights[269] + weights[270] + weights[271]
   + weights[272] + weights[273] + weights[274] + weights[275]
   + weights[276] + weights[277] + weights[278] + weights[279]
   + weights[280] = 1
 inverse_variance: [ variance_of_returns * inverse_variance ] = 1
Bounds
 weights[0] <= 1
 weights[1] <= 1
 weights[2] <= 1
 weights[3] <= 1
 weights[4] <= 1
 weights[5] <= 1
 weights[6] <= 1
 weights[7] <= 1
 weights[8] <= 1
 weights[9] <= 1
 weights[10] <= 1
 weights[11] <= 1
 weights[12] <= 1
 weights[13] <= 1
 weights[14] <= 1
 weights[15] <= 1
 weights[16] <= 1
 weights[17] <= 1
 weights[18] <= 1
 weights[19] <= 1
 weights[20] <= 1
 weights[21] <= 1
 weights[22] <= 1
 weights[23] <= 1
 weights[24] <= 1
 weights[25] <= 1
 weights[26] <= 1
 weights[27] <= 1
 weights[28] <= 1
 weights[29] <= 1
 weights[30] <= 1
 weights[31] <= 1
 weights[32] <= 1
 weights[33] <= 1
 weights[34] <= 1
 weights[35] <= 1
 weights[36] <= 1
 weights[37] <= 1
 weights[38] <= 1
 weights[39] <= 1
 weights[40] <= 1
 weights[41] <= 1
 weights[42] <= 1
 weights[43] <= 1
 weights[44] <= 1
 weights[45] <= 1
 weights[46] <= 1
 weights[47] <= 1
 weights[48] <= 1
 weights[49] <= 1
 weights[50] <= 1
 weights[51] <= 1
 weights[52] <= 1
 weights[53] <= 1
 weights[54] <= 1
 weights[55] <= 1
 weights[56] <= 1
 weights[57] <= 1
 weights[58] <= 1
 weights[59] <= 1
 weights[60] <= 1
 weights[61] <= 1
 weights[62] <= 1
 weights[63] <= 1
 weights[64] <= 1
 weights[65] <= 1
 weights[66] <= 1
 weights[67] <= 1
 weights[68] <= 1
 weights[69] <= 1
 weights[70] <= 1
 weights[71] <= 1
 weights[72] <= 1
 weights[73] <= 1
 weights[74] <= 1
 weights[75] <= 1
 weights[76] <= 1
 weights[77] <= 1
 weights[78] <= 1
 weights[79] <= 1
 weights[80] <= 1
 weights[81] <= 1
 weights[82] <= 1
 weights[83] <= 1
 weights[84] <= 1
 weights[85] <= 1
 weights[86] <= 1
 weights[87] <= 1
 weights[88] <= 1
 weights[89] <= 1
 weights[90] <= 1
 weights[91] <= 1
 weights[92] <= 1
 weights[93] <= 1
 weights[94] <= 1
 weights[95] <= 1
 weights[96] <= 1
 weights[97] <= 1
 weights[98] <= 1
 weights[99] <= 1
 weights[100] <= 1
 weights[101] <= 1
 weights[102] <= 1
 weights[103] <= 1
 weights[104] <= 1
 weights[105] <= 1
 weights[106] <= 1
 weights[107] <= 1
 weights[108] <= 1
 weights[109] <= 1
 weights[110] <= 1
 weights[111] <= 1
 weights[112] <= 1
 weights[113] <= 1
 weights[114] <= 1
 weights[115] <= 1
 weights[116] <= 1
 weights[117] <= 1
 weights[118] <= 1
 weights[119] <= 1
 weights[120] <= 1
 weights[121] <= 1
 weights[122] <= 1
 weights[123] <= 1
 weights[124] <= 1
 weights[125] <= 1
 weights[126] <= 1
 weights[127] <= 1
 weights[128] <= 1
 weights[129] <= 1
 weights[130] <= 1
 weights[131] <= 1
 weights[132] <= 1
 weights[133] <= 1
 weights[134] <= 1
 weights[135] <= 1
 weights[136] <= 1
 weights[137] <= 1
 weights[138] <= 1
 weights[139] <= 1
 weights[140] <= 1
 weights[141] <= 1
 weights[142] <= 1
 weights[143] <= 1
 weights[144] <= 1
 weights[145] <= 1
 weights[146] <= 1
 weights[147] <= 1
 weights[148] <= 1
 weights[149] <= 1
 weights[150] <= 1
 weights[151] <= 1
 weights[152] <= 1
 weights[153] <= 1
 weights[154] <= 1
 weights[155] <= 1
 weights[156] <= 1
 weights[157] <= 1
 weights[158] <= 1
 weights[159] <= 1
 weights[160] <= 1
 weights[161] <= 1
 weights[162] <= 1
 weights[163] <= 1
 weights[164] <= 1
 weights[165] <= 1
 weights[166] <= 1
 weights[167] <= 1
 weights[168] <= 1
 weights[169] <= 1
 weights[170] <= 1
 weights[171] <= 1
 weights[172] <= 1
 weights[173] <= 1
 weights[174] <= 1
 weights[175] <= 1
 weights[176] <= 1
 weights[177] <= 1
 weights[178] <= 1
 weights[179] <= 1
 weights[180] <= 1
 weights[181] <= 1
 weights[182] <= 1
 weights[183] <= 1
 weights[184] <= 1
 weights[185] <= 1
 weights[186] <= 1
 weights[187] <= 1
 weights[188] <= 1
 weights[189] <= 1
 weights[190] <= 1
 weights[191] <= 1
 weights[192] <= 1
 weights[193] <= 1
 weights[194] <= 1
 weights[195] <= 1
 weights[196] <= 1
 weights[197] <= 1
 weights[198] <= 1
 weights[199] <= 1
 weights[200] <= 1
 weights[201] <= 1
 weights[202] <= 1
 weights[203] <= 1
 weights[204] <= 1
 weights[205] <= 1
 weights[206] <= 1
 weights[207] <= 1
 weights[208] <= 1
 weights[209] <= 1
 weights[210] <= 1
 weights[211] <= 1
 weights[212] <= 1
 weights[213] <= 1
 weights[214] <= 1
 weights[215] <= 1
 weights[216] <= 1
 weights[217] <= 1
 weights[218] <= 1
 weights[219] <= 1
 weights[220] <= 1
 weights[221] <= 1
 weights[222] <= 1
 weights[223] <= 1
 weights[224] <= 1
 weights[225] <= 1
 weights[226] <= 1
 weights[227] <= 1
 weights[228] <= 1
 weights[229] <= 1
 weights[230] <= 1
 weights[231] <= 1
 weights[232] <= 1
 weights[233] <= 1
 weights[234] <= 1
 weights[235] <= 1
 weights[236] <= 1
 weights[237] <= 1
 weights[238] <= 1
 weights[239] <= 1
 weights[240] <= 1
 weights[241] <= 1
 weights[242] <= 1
 weights[243] <= 1
 weights[244] <= 1
 weights[245] <= 1
 weights[246] <= 1
 weights[247] <= 1
 weights[248] <= 1
 weights[249] <= 1
 weights[250] <= 1
 weights[251] <= 1
 weights[252] <= 1
 weights[253] <= 1
 weights[254] <= 1
 weights[255] <= 1
 weights[256] <= 1
 weights[257] <= 1
 weights[258] <= 1
 weights[259] <= 1
 weights[260] <= 1
 weights[261] <= 1
 weights[262] <= 1
 weights[263] <= 1
 weights[264] <= 1
 weights[265] <= 1
 weights[266] <= 1
 weights[267] <= 1
 weights[268] <= 1
 weights[269] <= 1
 weights[270] <= 1
 weights[271] <= 1
 weights[272] <= 1
 weights[273] <= 1
 weights[274] <= 1
 weights[275] <= 1
 weights[276] <= 1
 weights[277] <= 1
 weights[278] <= 1
 weights[279] <= 1
 weights[280] <= 1
End
